c colouring generated by benchmark framework
p edge 96 1368
v 1 14
v 2 8
v 3 15
v 4 2
v 5 1
v 6 6
v 7 7
v 8 5
v 9 4
v 10 12
v 11 13
v 12 3
v 13 7
v 14 0
v 15 11
v 16 6
v 17 5
v 18 10
v 19 14
v 20 3
v 21 9
v 22 2
v 23 4
v 24 15
v 25 2
v 26 6
v 27 7
v 28 1
v 29 3
v 30 4
v 31 15
v 32 0
v 33 5
v 34 10
v 35 9
v 36 8
v 37 1
v 38 10
v 39 8
v 40 4
v 41 0
v 42 12
v 43 6
v 44 14
v 45 2
v 46 11
v 47 3
v 48 5
v 49 8
v 50 4
v 51 5
v 52 12
v 53 2
v 54 3
v 55 0
v 56 1
v 57 7
v 58 13
v 59 10
v 60 6
v 61 15
v 62 11
v 63 3
v 64 7
v 65 4
v 66 1
v 67 5
v 68 2
v 69 0
v 70 6
v 71 8
v 72 9
v 73 12
v 74 2
v 75 9
v 76 8
v 77 6
v 78 0
v 79 10
v 80 4
v 81 1
v 82 3
v 83 5
v 84 7
v 85 6
v 86 5
v 87 10
v 88 3
v 89 7
v 90 14
v 91 1
v 92 8
v 93 12
v 94 4
v 95 11
v 96 2
